(set-logic QF_NRA)
(set-info :source |Benchmarks generated from hycomp (https://es-static.fbk.eu/tools/hycomp/). BMC instances of non-linear hybrid automata taken from: Alessandro Cimatti, Sergio Mover, Stefano Tonetta, A quantifier-free SMT encoding of non-linear hybrid automata, FMCAD 2012 and Alessandro Cimatti, Sergio Mover, Stefano Tonetta, Quantier-free encoding of invariants for Hybrid Systems, Formal Methods in System Design. This instance solves a BMC problem of depth 2 and uses the encoding obtained with quantifier elimination using qepcad encoding. Contacts: Sergio Mover (mover@fbk.eu), Stefano Tonetta (tonettas@fbk.eu), Alessandro Cimatti (cimatti@fbk.eu).|)
(set-info :smt-lib-version 2.0)
(set-info :category "industrial")
(set-info :status unsat)
;; MathSAT API call trace
;; generated on Mon Mar 19 10:50:40 2012
(declare-fun b.event_is_timed__AT0 () Bool)
(declare-fun b.time__AT0 () Real)
(declare-fun b.EVENT.1__AT1 () Bool)
(declare-fun b.counter.1__AT2 () Bool)
(declare-fun b.event_is_timed__AT2 () Bool)
(declare-fun b.delta__AT0 () Real)
(declare-fun b.counter.2__AT2 () Bool)
(declare-fun b.time__AT2 () Real)
(declare-fun b.y__AT0 () Real)
(declare-fun b.counter.3__AT2 () Bool)
(declare-fun b.speed_y__AT2 () Real)
(declare-fun b.delta__AT2 () Real)
(declare-fun b.counter.0__AT0 () Bool)
(declare-fun b.bool_atom__AT2 () Bool)
(declare-fun b.EVENT.1__AT0 () Bool)
(declare-fun b.EVENT.0__AT0 () Bool)
(declare-fun b.EVENT.0__AT2 () Bool)
(declare-fun b.counter.3__AT0 () Bool)
(declare-fun b.counter.1__AT0 () Bool)
(declare-fun b.bool_atom__AT1 () Bool)
(declare-fun b.EVENT.1__AT2 () Bool)
(declare-fun b.g__AT0 () Real)
(declare-fun b.event_is_timed__AT1 () Bool)
(declare-fun b.speed_y__AT0 () Real)
(declare-fun b.y__AT1 () Real)
(declare-fun b.counter.2__AT0 () Bool)
(declare-fun b.counter.0__AT1 () Bool)
(declare-fun b.counter.1__AT1 () Bool)
(declare-fun b.counter.2__AT1 () Bool)
(declare-fun b.counter.3__AT1 () Bool)
(declare-fun b.x__AT1 () Real)
(declare-fun b.bool_atom__AT0 () Bool)
(declare-fun b.x__AT0 () Real)
(declare-fun b.delta__AT1 () Real)
(declare-fun b.speed_y__AT1 () Real)
(declare-fun b.x__AT2 () Real)
(declare-fun b.y__AT2 () Real)
(declare-fun b.time__AT1 () Real)
(declare-fun b.EVENT.0__AT1 () Bool)
(declare-fun b.counter.0__AT2 () Bool)
(assert (let ((.def_465 (* 5.0 b.delta__AT2)))
(let ((.def_466 (* b.delta__AT2 .def_465)))
(let ((.def_467 (* (- 1.0) .def_466)))
(let ((.def_463 (* b.speed_y__AT2 b.delta__AT2)))
(let ((.def_470 (+ .def_463 .def_467)))
(let ((.def_460 (* b.x__AT2 b.x__AT2)))
(let ((.def_471 (+ .def_460 .def_470)))
(let ((.def_472 (+ b.y__AT2 .def_471)))
(let ((.def_473 (<= 0.0 .def_472)))
(let ((.def_461 (+ b.y__AT2 .def_460)))
(let ((.def_462 (<= 0.0 .def_461)))
(let ((.def_474 (and .def_462 .def_473)))
(let ((.def_458 (<= 0.0 b.delta__AT2)))
(let ((.def_459 (not .def_458)))
(let ((.def_475 (or .def_459 .def_474)))
(let ((.def_433 (not b.EVENT.0__AT2)))
(let ((.def_431 (not b.EVENT.1__AT2)))
(let ((.def_455 (and .def_431 .def_433)))
(let ((.def_456 (not .def_455)))
(let ((.def_476 (or .def_456 .def_475)))
(let ((.def_166 (not b.counter.0__AT1)))
(let ((.def_448 (or b.counter.1__AT1 .def_166)))
(let ((.def_449 (or b.counter.2__AT1 .def_448)))
(let ((.def_156 (not b.counter.1__AT1)))
(let ((.def_443 (and .def_156 .def_166)))
(let ((.def_161 (not b.counter.2__AT1)))
(let ((.def_447 (or .def_161 .def_443)))
(let ((.def_450 (and .def_447 .def_449)))
(let ((.def_451 (or b.counter.3__AT1 .def_450)))
(let ((.def_444 (or b.counter.2__AT1 .def_443)))
(let ((.def_442 (or .def_156 .def_161)))
(let ((.def_445 (and .def_442 .def_444)))
(let ((.def_175 (not b.counter.3__AT1)))
(let ((.def_446 (or .def_175 .def_445)))
(let ((.def_452 (and .def_446 .def_451)))
(let ((.def_436 (* (- 1.0) b.x__AT2)))
(let ((.def_437 (* b.x__AT2 .def_436)))
(let ((.def_438 (<= .def_437 b.y__AT2)))
(let ((.def_68 (<= b.g__AT0 10.0 )))
(let ((.def_67 (<= 8.0 b.g__AT0)))
(let ((.def_69 (and .def_67 .def_68)))
(let ((.def_439 (and .def_69 .def_438)))
(let ((.def_434 (or .def_431 .def_433)))
(let ((.def_9 (not b.counter.0__AT2)))
(let ((.def_6 (not b.counter.1__AT2)))
(let ((.def_424 (or .def_6 .def_9)))
(let ((.def_428 (or b.counter.3__AT2 .def_424)))
(let ((.def_425 (or b.counter.2__AT2 .def_424)))
(let ((.def_4 (not b.counter.2__AT2)))
(let ((.def_423 (or .def_4 .def_9)))
(let ((.def_426 (and .def_423 .def_425)))
(let ((.def_14 (not b.counter.3__AT2)))
(let ((.def_427 (or .def_14 .def_426)))
(let ((.def_429 (and .def_427 .def_428)))
(let ((.def_435 (and .def_429 .def_434)))
(let ((.def_440 (and .def_435 .def_439)))
(let ((.def_275 (<= 0.0 b.delta__AT1)))
(let ((.def_251 (not b.EVENT.0__AT1)))
(let ((.def_249 (not b.EVENT.1__AT1)))
(let ((.def_272 (and .def_249 .def_251)))
(let ((.def_273 (not .def_272)))
(let ((.def_419 (or .def_273 .def_275)))
(let ((.def_420 (or b.EVENT.1__AT1 .def_419)))
(let ((.def_330 (= b.bool_atom__AT1 b.bool_atom__AT2)))
(let ((.def_326 (= b.counter.0__AT2 b.counter.0__AT1)))
(let ((.def_324 (= b.counter.1__AT2 b.counter.1__AT1)))
(let ((.def_322 (= b.counter.2__AT2 b.counter.2__AT1)))
(let ((.def_321 (= b.counter.3__AT2 b.counter.3__AT1)))
(let ((.def_323 (and .def_321 .def_322)))
(let ((.def_325 (and .def_323 .def_324)))
(let ((.def_327 (and .def_325 .def_326)))
(let ((.def_415 (and .def_327 .def_330)))
(let ((.def_416 (or .def_273 .def_415)))
(let ((.def_417 (or b.EVENT.1__AT1 .def_416)))
(let ((.def_207 (* (- 1.0) b.g__AT0)))
(let ((.def_404 (* .def_207 b.delta__AT1)))
(let ((.def_405 (* (- 1.0) b.speed_y__AT2)))
(let ((.def_408 (+ .def_405 .def_404)))
(let ((.def_409 (+ b.speed_y__AT1 .def_408)))
(let ((.def_410 (= .def_409 0.0 )))
(let ((.def_393 (* b.delta__AT1 b.delta__AT1)))
(let ((.def_210 (* (/ 1 2) .def_207)))
(let ((.def_394 (* .def_210 .def_393)))
(let ((.def_395 (* (- 1.0) b.y__AT2)))
(let ((.def_399 (+ .def_395 .def_394)))
(let ((.def_280 (* b.speed_y__AT1 b.delta__AT1)))
(let ((.def_400 (+ .def_280 .def_399)))
(let ((.def_401 (+ b.y__AT1 .def_400)))
(let ((.def_402 (= .def_401 0.0 )))
(let ((.def_313 (= b.x__AT1 b.x__AT2)))
(let ((.def_403 (and .def_313 .def_402)))
(let ((.def_411 (and .def_403 .def_410)))
(let ((.def_412 (or .def_273 .def_411)))
(let ((.def_316 (= b.y__AT1 b.y__AT2)))
(let ((.def_388 (and .def_313 .def_316)))
(let ((.def_319 (= b.speed_y__AT1 b.speed_y__AT2)))
(let ((.def_389 (and .def_319 .def_388)))
(let ((.def_385 (= b.delta__AT1 0.0 )))
(let ((.def_386 (and .def_272 .def_385)))
(let ((.def_387 (not .def_386)))
(let ((.def_390 (or .def_387 .def_389)))
(let ((.def_391 (or b.EVENT.1__AT1 .def_390)))
(let ((.def_378 (and .def_319 .def_327)))
(let ((.def_379 (or b.bool_atom__AT1 .def_378)))
(let ((.def_354 (or .def_9 b.counter.0__AT1)))
(let ((.def_353 (or b.counter.0__AT2 .def_166)))
(let ((.def_355 (and .def_353 .def_354)))
(let ((.def_356 (and .def_6 .def_355)))
(let ((.def_357 (or b.counter.1__AT1 .def_356)))
(let ((.def_352 (or b.counter.1__AT2 .def_156)))
(let ((.def_358 (and .def_352 .def_357)))
(let ((.def_369 (and .def_4 .def_358)))
(let ((.def_370 (or b.counter.2__AT1 .def_369)))
(let ((.def_364 (and .def_6 .def_166)))
(let ((.def_365 (or b.counter.1__AT1 .def_364)))
(let ((.def_366 (and .def_352 .def_365)))
(let ((.def_367 (and b.counter.2__AT2 .def_366)))
(let ((.def_368 (or .def_161 .def_367)))
(let ((.def_371 (and .def_368 .def_370)))
(let ((.def_372 (and b.counter.3__AT2 .def_371)))
(let ((.def_373 (or b.counter.3__AT1 .def_372)))
(let ((.def_359 (and b.counter.2__AT2 .def_358)))
(let ((.def_360 (or b.counter.2__AT1 .def_359)))
(let ((.def_348 (or b.counter.1__AT2 b.counter.1__AT1)))
(let ((.def_346 (and .def_6 b.counter.0__AT2)))
(let ((.def_347 (or .def_156 .def_346)))
(let ((.def_349 (and .def_347 .def_348)))
(let ((.def_350 (and .def_4 .def_349)))
(let ((.def_351 (or .def_161 .def_350)))
(let ((.def_361 (and .def_351 .def_360)))
(let ((.def_362 (and .def_14 .def_361)))
(let ((.def_363 (or .def_175 .def_362)))
(let ((.def_374 (and .def_363 .def_373)))
(let ((.def_343 (* b.speed_y__AT2 b.speed_y__AT2)))
(let ((.def_152 (* b.speed_y__AT1 b.speed_y__AT1)))
(let ((.def_344 (= .def_152 .def_343)))
(let ((.def_341 (+ b.speed_y__AT1 b.speed_y__AT2)))
(let ((.def_342 (= .def_341 0.0 )))
(let ((.def_345 (and .def_342 .def_344)))
(let ((.def_375 (and .def_345 .def_374)))
(let ((.def_340 (not b.bool_atom__AT1)))
(let ((.def_376 (or .def_340 .def_375)))
(let ((.def_336 (<= 0.0 b.speed_y__AT1)))
(let ((.def_337 (not .def_336)))
(let ((.def_254 (* (- 1.0) b.x__AT1)))
(let ((.def_255 (* b.x__AT1 .def_254)))
(let ((.def_335 (= b.y__AT1 .def_255)))
(let ((.def_338 (and .def_335 .def_337)))
(let ((.def_339 (= b.bool_atom__AT1 .def_338)))
(let ((.def_377 (and .def_339 .def_376)))
(let ((.def_380 (and .def_377 .def_379)))
(let ((.def_381 (and .def_313 .def_380)))
(let ((.def_382 (and .def_316 .def_381)))
(let ((.def_383 (or .def_272 .def_382)))
(let ((.def_384 (or b.EVENT.1__AT1 .def_383)))
(let ((.def_392 (and .def_384 .def_391)))
(let ((.def_413 (and .def_392 .def_412)))
(let ((.def_300 (= b.time__AT1 b.time__AT2)))
(let ((.def_314 (and .def_300 .def_313)))
(let ((.def_317 (and .def_314 .def_316)))
(let ((.def_320 (and .def_317 .def_319)))
(let ((.def_328 (and .def_320 .def_327)))
(let ((.def_331 (and .def_328 .def_330)))
(let ((.def_332 (or .def_249 .def_331)))
(let ((.def_303 (* (- 1.0) b.time__AT2)))
(let ((.def_306 (+ b.delta__AT1 .def_303)))
(let ((.def_307 (+ b.time__AT1 .def_306)))
(let ((.def_308 (= .def_307 0.0 )))
(let ((.def_309 (or .def_273 .def_308)))
(let ((.def_310 (or b.EVENT.1__AT1 .def_309)))
(let ((.def_301 (or .def_272 .def_300)))
(let ((.def_302 (or b.EVENT.1__AT1 .def_301)))
(let ((.def_311 (and .def_302 .def_310)))
(let ((.def_333 (and .def_311 .def_332)))
(let ((.def_297 (= .def_273 b.event_is_timed__AT2)))
(let ((.def_295 (= b.event_is_timed__AT1 .def_272)))
(let ((.def_298 (and .def_295 .def_297)))
(let ((.def_334 (and .def_298 .def_333)))
(let ((.def_414 (and .def_334 .def_413)))
(let ((.def_418 (and .def_414 .def_417)))
(let ((.def_421 (and .def_418 .def_420)))
(let ((.def_422 (and .def_249 .def_421)))
(let ((.def_441 (and .def_422 .def_440)))
(let ((.def_453 (and .def_441 .def_452)))
(let ((.def_282 (* 5.0 b.delta__AT1)))
(let ((.def_283 (* b.delta__AT1 .def_282)))
(let ((.def_284 (* (- 1.0) .def_283)))
(let ((.def_287 (+ .def_280 .def_284)))
(let ((.def_277 (* b.x__AT1 b.x__AT1)))
(let ((.def_288 (+ .def_277 .def_287)))
(let ((.def_289 (+ b.y__AT1 .def_288)))
(let ((.def_290 (<= 0.0 .def_289)))
(let ((.def_278 (+ b.y__AT1 .def_277)))
(let ((.def_279 (<= 0.0 .def_278)))
(let ((.def_291 (and .def_279 .def_290)))
(let ((.def_276 (not .def_275)))
(let ((.def_292 (or .def_276 .def_291)))
(let ((.def_293 (or .def_273 .def_292)))
(let ((.def_38 (not b.counter.0__AT0)))
(let ((.def_265 (or b.counter.1__AT0 .def_38)))
(let ((.def_266 (or b.counter.2__AT0 .def_265)))
(let ((.def_41 (not b.counter.2__AT0)))
(let ((.def_36 (not b.counter.1__AT0)))
(let ((.def_39 (and .def_36 .def_38)))
(let ((.def_264 (or .def_39 .def_41)))
(let ((.def_267 (and .def_264 .def_266)))
(let ((.def_268 (or b.counter.3__AT0 .def_267)))
(let ((.def_261 (or .def_39 b.counter.2__AT0)))
(let ((.def_260 (or .def_36 .def_41)))
(let ((.def_262 (and .def_260 .def_261)))
(let ((.def_44 (not b.counter.3__AT0)))
(let ((.def_263 (or .def_44 .def_262)))
(let ((.def_269 (and .def_263 .def_268)))
(let ((.def_256 (<= .def_255 b.y__AT1)))
(let ((.def_257 (and .def_69 .def_256)))
(let ((.def_252 (or .def_249 .def_251)))
(let ((.def_242 (or .def_156 .def_166)))
(let ((.def_246 (or b.counter.3__AT1 .def_242)))
(let ((.def_243 (or b.counter.2__AT1 .def_242)))
(let ((.def_241 (or .def_161 .def_166)))
(let ((.def_244 (and .def_241 .def_243)))
(let ((.def_245 (or .def_175 .def_244)))
(let ((.def_247 (and .def_245 .def_246)))
(let ((.def_253 (and .def_247 .def_252)))
(let ((.def_258 (and .def_253 .def_257)))
(let ((.def_77 (<= 0.0 b.delta__AT0)))
(let ((.def_57 (not b.EVENT.0__AT0)))
(let ((.def_55 (not b.EVENT.1__AT0)))
(let ((.def_74 (and .def_55 .def_57)))
(let ((.def_75 (not .def_74)))
(let ((.def_237 (or .def_75 .def_77)))
(let ((.def_238 (or b.EVENT.1__AT0 .def_237)))
(let ((.def_139 (= b.bool_atom__AT0 b.bool_atom__AT1)))
(let ((.def_134 (= b.counter.0__AT0 b.counter.0__AT1)))
(let ((.def_131 (= b.counter.1__AT0 b.counter.1__AT1)))
(let ((.def_128 (= b.counter.2__AT0 b.counter.2__AT1)))
(let ((.def_126 (= b.counter.3__AT0 b.counter.3__AT1)))
(let ((.def_129 (and .def_126 .def_128)))
(let ((.def_132 (and .def_129 .def_131)))
(let ((.def_135 (and .def_132 .def_134)))
(let ((.def_233 (and .def_135 .def_139)))
(let ((.def_234 (or .def_75 .def_233)))
(let ((.def_235 (or b.EVENT.1__AT0 .def_234)))
(let ((.def_222 (* b.delta__AT0 .def_207)))
(let ((.def_223 (* (- 1.0) b.speed_y__AT1)))
(let ((.def_226 (+ .def_223 .def_222)))
(let ((.def_227 (+ b.speed_y__AT0 .def_226)))
(let ((.def_228 (= .def_227 0.0 )))
(let ((.def_211 (* b.delta__AT0 b.delta__AT0)))
(let ((.def_212 (* .def_210 .def_211)))
(let ((.def_214 (* (- 1.0) b.y__AT1)))
(let ((.def_217 (+ .def_214 .def_212)))
(let ((.def_83 (* b.delta__AT0 b.speed_y__AT0)))
(let ((.def_218 (+ .def_83 .def_217)))
(let ((.def_219 (+ b.y__AT0 .def_218)))
(let ((.def_220 (= .def_219 0.0 )))
(let ((.def_117 (= b.x__AT0 b.x__AT1)))
(let ((.def_221 (and .def_117 .def_220)))
(let ((.def_229 (and .def_221 .def_228)))
(let ((.def_230 (or .def_75 .def_229)))
(let ((.def_120 (= b.y__AT0 b.y__AT1)))
(let ((.def_202 (and .def_117 .def_120)))
(let ((.def_123 (= b.speed_y__AT0 b.speed_y__AT1)))
(let ((.def_203 (and .def_123 .def_202)))
(let ((.def_199 (= b.delta__AT0 0.0 )))
(let ((.def_200 (and .def_74 .def_199)))
(let ((.def_201 (not .def_200)))
(let ((.def_204 (or .def_201 .def_203)))
(let ((.def_205 (or b.EVENT.1__AT0 .def_204)))
(let ((.def_192 (and .def_123 .def_135)))
(let ((.def_193 (or b.bool_atom__AT0 .def_192)))
(let ((.def_167 (or b.counter.0__AT0 .def_166)))
(let ((.def_165 (or .def_38 b.counter.0__AT1)))
(let ((.def_168 (and .def_165 .def_167)))
(let ((.def_169 (and .def_156 .def_168)))
(let ((.def_170 (or b.counter.1__AT0 .def_169)))
(let ((.def_164 (or .def_36 b.counter.1__AT1)))
(let ((.def_171 (and .def_164 .def_170)))
(let ((.def_183 (and .def_161 .def_171)))
(let ((.def_184 (or b.counter.2__AT0 .def_183)))
(let ((.def_178 (and .def_38 .def_156)))
(let ((.def_179 (or b.counter.1__AT0 .def_178)))
(let ((.def_180 (and .def_164 .def_179)))
(let ((.def_181 (and b.counter.2__AT1 .def_180)))
(let ((.def_182 (or .def_41 .def_181)))
(let ((.def_185 (and .def_182 .def_184)))
(let ((.def_186 (and b.counter.3__AT1 .def_185)))
(let ((.def_187 (or b.counter.3__AT0 .def_186)))
(let ((.def_172 (and b.counter.2__AT1 .def_171)))
(let ((.def_173 (or b.counter.2__AT0 .def_172)))
(let ((.def_159 (or b.counter.1__AT0 b.counter.1__AT1)))
(let ((.def_157 (and b.counter.0__AT1 .def_156)))
(let ((.def_158 (or .def_36 .def_157)))
(let ((.def_160 (and .def_158 .def_159)))
(let ((.def_162 (and .def_160 .def_161)))
(let ((.def_163 (or .def_41 .def_162)))
(let ((.def_174 (and .def_163 .def_173)))
(let ((.def_176 (and .def_174 .def_175)))
(let ((.def_177 (or .def_44 .def_176)))
(let ((.def_188 (and .def_177 .def_187)))
(let ((.def_153 (* b.speed_y__AT0 b.speed_y__AT0)))
(let ((.def_154 (= .def_152 .def_153)))
(let ((.def_150 (+ b.speed_y__AT0 b.speed_y__AT1)))
(let ((.def_151 (= .def_150 0.0 )))
(let ((.def_155 (and .def_151 .def_154)))
(let ((.def_189 (and .def_155 .def_188)))
(let ((.def_149 (not b.bool_atom__AT0)))
(let ((.def_190 (or .def_149 .def_189)))
(let ((.def_145 (<= 0.0 b.speed_y__AT0)))
(let ((.def_146 (not .def_145)))
(let ((.def_62 (* (- 1.0) b.x__AT0)))
(let ((.def_63 (* b.x__AT0 .def_62)))
(let ((.def_144 (= b.y__AT0 .def_63)))
(let ((.def_147 (and .def_144 .def_146)))
(let ((.def_148 (= b.bool_atom__AT0 .def_147)))
(let ((.def_191 (and .def_148 .def_190)))
(let ((.def_194 (and .def_191 .def_193)))
(let ((.def_195 (and .def_117 .def_194)))
(let ((.def_196 (and .def_120 .def_195)))
(let ((.def_197 (or .def_74 .def_196)))
(let ((.def_198 (or b.EVENT.1__AT0 .def_197)))
(let ((.def_206 (and .def_198 .def_205)))
(let ((.def_231 (and .def_206 .def_230)))
(let ((.def_104 (= b.time__AT0 b.time__AT1)))
(let ((.def_118 (and .def_104 .def_117)))
(let ((.def_121 (and .def_118 .def_120)))
(let ((.def_124 (and .def_121 .def_123)))
(let ((.def_136 (and .def_124 .def_135)))
(let ((.def_140 (and .def_136 .def_139)))
(let ((.def_141 (or .def_55 .def_140)))
(let ((.def_107 (* (- 1.0) b.time__AT1)))
(let ((.def_110 (+ b.delta__AT0 .def_107)))
(let ((.def_111 (+ b.time__AT0 .def_110)))
(let ((.def_112 (= .def_111 0.0 )))
(let ((.def_113 (or .def_75 .def_112)))
(let ((.def_114 (or b.EVENT.1__AT0 .def_113)))
(let ((.def_105 (or .def_74 .def_104)))
(let ((.def_106 (or b.EVENT.1__AT0 .def_105)))
(let ((.def_115 (and .def_106 .def_114)))
(let ((.def_142 (and .def_115 .def_141)))
(let ((.def_101 (= .def_75 b.event_is_timed__AT1)))
(let ((.def_99 (= b.event_is_timed__AT0 .def_74)))
(let ((.def_102 (and .def_99 .def_101)))
(let ((.def_143 (and .def_102 .def_142)))
(let ((.def_232 (and .def_143 .def_231)))
(let ((.def_236 (and .def_232 .def_235)))
(let ((.def_239 (and .def_236 .def_238)))
(let ((.def_240 (and .def_55 .def_239)))
(let ((.def_259 (and .def_240 .def_258)))
(let ((.def_270 (and .def_259 .def_269)))
(let ((.def_86 (* 5.0 b.delta__AT0)))
(let ((.def_87 (* b.delta__AT0 .def_86)))
(let ((.def_88 (* (- 1.0) .def_87)))
(let ((.def_91 (+ .def_83 .def_88)))
(let ((.def_79 (* b.x__AT0 b.x__AT0)))
(let ((.def_92 (+ .def_79 .def_91)))
(let ((.def_93 (+ b.y__AT0 .def_92)))
(let ((.def_94 (<= 0.0 .def_93)))
(let ((.def_80 (+ b.y__AT0 .def_79)))
(let ((.def_81 (<= 0.0 .def_80)))
(let ((.def_95 (and .def_81 .def_94)))
(let ((.def_78 (not .def_77)))
(let ((.def_96 (or .def_78 .def_95)))
(let ((.def_97 (or .def_75 .def_96)))
(let ((.def_64 (<= .def_63 b.y__AT0)))
(let ((.def_70 (and .def_64 .def_69)))
(let ((.def_58 (or .def_55 .def_57)))
(let ((.def_48 (or .def_36 .def_38)))
(let ((.def_52 (or b.counter.3__AT0 .def_48)))
(let ((.def_49 (or b.counter.2__AT0 .def_48)))
(let ((.def_47 (or .def_38 .def_41)))
(let ((.def_50 (and .def_47 .def_49)))
(let ((.def_51 (or .def_44 .def_50)))
(let ((.def_53 (and .def_51 .def_52)))
(let ((.def_59 (and .def_53 .def_58)))
(let ((.def_71 (and .def_59 .def_70)))
(let ((.def_42 (and .def_39 .def_41)))
(let ((.def_45 (and .def_42 .def_44)))
(let ((.def_33 (= b.y__AT0 10.0 )))
(let ((.def_29 (= b.x__AT0 0.0 )))
(let ((.def_25 (= b.time__AT0 0.0 )))
(let ((.def_27 (and .def_25 b.event_is_timed__AT0)))
(let ((.def_30 (and .def_27 .def_29)))
(let ((.def_34 (and .def_30 .def_33)))
(let ((.def_46 (and .def_34 .def_45)))
(let ((.def_72 (and .def_46 .def_71)))
(let ((.def_17 (or b.counter.1__AT2 .def_9)))
(let ((.def_18 (or b.counter.2__AT2 .def_17)))
(let ((.def_10 (and .def_6 .def_9)))
(let ((.def_16 (or .def_4 .def_10)))
(let ((.def_19 (and .def_16 .def_18)))
(let ((.def_20 (or b.counter.3__AT2 .def_19)))
(let ((.def_11 (or b.counter.2__AT2 .def_10)))
(let ((.def_7 (or .def_4 .def_6)))
(let ((.def_12 (and .def_7 .def_11)))
(let ((.def_15 (or .def_12 .def_14)))
(let ((.def_21 (and .def_15 .def_20)))
(let ((.def_22 (not .def_21)))
(let ((.def_73 (and .def_22 .def_72)))
(let ((.def_98 (and .def_73 .def_97)))
(let ((.def_271 (and .def_98 .def_270)))
(let ((.def_294 (and .def_271 .def_293)))
(let ((.def_454 (and .def_294 .def_453)))
(let ((.def_477 (and .def_454 .def_476)))
.def_477)))))))))))))))))))))))))))))))))))))))))))))))))))))))))))))))))))))))))))))))))))))))))))))))))))))))))))))))))))))))))))))))))))))))))))))))))))))))))))))))))))))))))))))))))))))))))))))))))))))))))))))))))))))))))))))))))))))))))))))))))))))))))))))))))))))))))))))))))))))))))))))))))))))))))))))))))))))))))))))))))))))))))))))))))))))))))))))))))))))))))))))))))))))))))))))))))))))))))))))))))))))
(check-sat)
(exit)
